# Solution for model count
# Objective value = 3
z#1 0
z#2 0
z#3 0
z#4 0
z#5 0
z#6 0
z#7 0
z#8 1
z#9 0
z#10 0
z#11 0
z#12 0
z#13 0
z#14 0
z#15 0
z#16 1
z#17 1
z#18 0
z#19 0
z#20 0
z#21 0
z#22 0
z#23 0
z#24 0
x#24 0
x#23 0
x#22 0
x#21 0
x#20 0
x#19 0
x#18 0
x#17 1634
x#16 5856
x#15 0
x#14 0
x#13 0
x#12 0
x#11 0
x#10 0
x#9 0
x#8 2510
x#7 0
x#6 0
x#5 0
x#4 0
x#3 0
x#2 0
x#1 0
